solution status: optimal solution found
objective value:                     106713.266622445
d11(0,0)                                            1 	(obj:0)
d11(1,1)                                            1 	(obj:0)
d11(2,3)                                            1 	(obj:0)
d11(3,7)                                            1 	(obj:0)
d11(3,9)                                            1 	(obj:0)
d11(3,11)                                           1 	(obj:0)
d11(3,13)                                           1 	(obj:0)
d11(3,14)                                           1 	(obj:0)
d12(1,2)                                            1 	(obj:0)
d12(2,4)                                            1 	(obj:0)
d12(2,6)                                            1 	(obj:0)
d21(3,7)                                            1 	(obj:0)
d21(3,9)                                            1 	(obj:0)
d21(3,11)                                           1 	(obj:0)
WB(2)                                3315.65537776224 	(obj:0)
y2(1,2)                              234.709940019242 	(obj:0)
y2(2,4)                              1385.48851144895 	(obj:0)
y2(2,6)                              1385.48851144895 	(obj:0)
STE(1,1)                             3118.49999999883 	(obj:0)
STE(0,0)                                         4725 	(obj:0)
STE(1,2)                             4569.97444301828 	(obj:0)
STE(2,3)                                       2740.5 	(obj:0)
STE(2,4)                             4056.71408587533 	(obj:0)
STE(2,5)                             4191.97444301828 	(obj:0)
STE(2,6)                             5508.18852889479 	(obj:0)
STE(3,7)                             704.250101111154 	(obj:0)
STE(3,8)                                       2362.5 	(obj:0)
STE(3,9)                             2020.46418698649 	(obj:0)
STE(3,10)                            3678.71408587533 	(obj:0)
STE(3,11)                            2155.72454412943 	(obj:0)
STE(3,12)                            3813.97444301828 	(obj:0)
STE(3,13)                            3471.93863000594 	(obj:0)
STE(3,14)                            5130.18852889479 	(obj:0)
AVE(2)                               3315.65537776224 	(obj:0)
y1(1,1)                              1105.65000000106 	(obj:0)
y1(2,3)                          -1.05646904557943e-009 	(obj:0)
y1(3,7)                              1492.42490899996 	(obj:0)
y1(3,9)                              1492.42490899996 	(obj:0)
y1(3,11)                             1492.42490899996 	(obj:0)
y1(3,13)                             1492.42490899996 	(obj:0)
AVE(3)                               3315.65799770399 	(obj:0)
WG(1)                                3248.33172520918 	(obj:10)
WG(3)                                3315.65799770399 	(obj:10)
BG(1)                                553.292499281733 	(obj:10)
BG(2)                                2673.40993877551 	(obj:10)
BG(3)                                880.634501275601 	(obj:10)
AVE(1)                               3248.33172520918 	(obj:0)
